
Gurobi 12.0.2 (win64) logging started Tue Jun 10 16:01:18 2025

Set parameter LogFile to value "C:\Ioana\_uni\honours\slp\algorithm\Main_files\results\others\neuro_2\Task_354_Sample002_irr_gurobi.log"
Gurobi Optimizer version 12.0.2 build v12.0.2rc0 (win64 - Windows 11.0 (26100.2))

CPU model: Intel(R) Core(TM) Ultra 5 125H, instruction set [SSE2|AVX|AVX2]
Thread count: 14 physical cores, 18 logical processors, using up to 18 threads

Non-default parameters:
TimeLimit  2200

Optimize a model with 47226 rows, 34494 columns and 146681 nonzeros
Model fingerprint: 0xbfba1e2d
Variable types: 17249 continuous, 17245 integer (17245 binary)
Coefficient statistics:
  Matrix range     [1e-04, 8e+04]
  Objective range  [5e-05, 1e+01]
  Bounds range     [1e+00, 1e+03]
  RHS range        [1e+00, 1e+00]
Found heuristic solution: objective 0.8771930
Presolve removed 37176 rows and 26572 columns
Presolve time: 0.37s
Presolved: 10050 rows, 7922 columns, 31535 nonzeros
Variable types: 3937 continuous, 3985 integer (3985 binary)

Root relaxation: objective 8.771930e-04, 12 iterations, 0.00 seconds (0.00 work units)

    Nodes    |    Current Node    |     Objective Bounds      |     Work
 Expl Unexpl |  Obj  Depth IntInf | Incumbent    BestBd   Gap | It/Node Time

     0     0    0.00088    0    1    0.87719    0.00088   100%     -    0s
     0     0 infeasible    0         0.87719    0.87719  0.00%     -    0s

Explored 1 nodes (199 simplex iterations) in 0.44 seconds (0.43 work units)
Thread count was 18 (of 18 available processors)

Solution count 1: 0.877193 

Optimal solution found (tolerance 1.00e-04)
Best objective 8.771929824561e-01, best bound 8.771929824561e-01, gap 0.0000%
